c File: flat50_3_0.col
c
c SOURCE: Joseph Culberson (joe@cs.ualberta.ca)
c DESCRIPTION: Quasi-random coloring problem
c              generated with flatness = 0
c                             probability = 0.139
c                             known coloring = 3
c                             random seed = 1440
c              Creation Date:  Tue Jun  9 12:09:25 1998
c Maximum degree = 8 Minimum degree = 0
c p edge 50 115
c cnf created by edge2cnf
p cnf 150 545
-1 -2 0
-1 -3 0
-2 -3 0
1 2 3 0
-4 -5 0
-4 -6 0
-5 -6 0
4 5 6 0
-7 -8 0
-7 -9 0
-8 -9 0
7 8 9 0
-10 -11 0
-10 -12 0
-11 -12 0
10 11 12 0
-13 -14 0
-13 -15 0
-14 -15 0
13 14 15 0
-16 -17 0
-16 -18 0
-17 -18 0
16 17 18 0
-19 -20 0
-19 -21 0
-20 -21 0
19 20 21 0
-22 -23 0
-22 -24 0
-23 -24 0
22 23 24 0
-25 -26 0
-25 -27 0
-26 -27 0
25 26 27 0
-28 -29 0
-28 -30 0
-29 -30 0
28 29 30 0
-31 -32 0
-31 -33 0
-32 -33 0
31 32 33 0
-34 -35 0
-34 -36 0
-35 -36 0
34 35 36 0
-37 -38 0
-37 -39 0
-38 -39 0
37 38 39 0
-40 -41 0
-40 -42 0
-41 -42 0
40 41 42 0
-43 -44 0
-43 -45 0
-44 -45 0
43 44 45 0
-46 -47 0
-46 -48 0
-47 -48 0
46 47 48 0
-49 -50 0
-49 -51 0
-50 -51 0
49 50 51 0
-52 -53 0
-52 -54 0
-53 -54 0
52 53 54 0
-55 -56 0
-55 -57 0
-56 -57 0
55 56 57 0
-58 -59 0
-58 -60 0
-59 -60 0
58 59 60 0
-61 -62 0
-61 -63 0
-62 -63 0
61 62 63 0
-64 -65 0
-64 -66 0
-65 -66 0
64 65 66 0
-67 -68 0
-67 -69 0
-68 -69 0
67 68 69 0
-70 -71 0
-70 -72 0
-71 -72 0
70 71 72 0
-73 -74 0
-73 -75 0
-74 -75 0
73 74 75 0
-76 -77 0
-76 -78 0
-77 -78 0
76 77 78 0
-79 -80 0
-79 -81 0
-80 -81 0
79 80 81 0
-82 -83 0
-82 -84 0
-83 -84 0
82 83 84 0
-85 -86 0
-85 -87 0
-86 -87 0
85 86 87 0
-88 -89 0
-88 -90 0
-89 -90 0
88 89 90 0
-91 -92 0
-91 -93 0
-92 -93 0
91 92 93 0
-94 -95 0
-94 -96 0
-95 -96 0
94 95 96 0
-97 -98 0
-97 -99 0
-98 -99 0
97 98 99 0
-100 -101 0
-100 -102 0
-101 -102 0
100 101 102 0
-103 -104 0
-103 -105 0
-104 -105 0
103 104 105 0
-106 -107 0
-106 -108 0
-107 -108 0
106 107 108 0
-109 -110 0
-109 -111 0
-110 -111 0
109 110 111 0
-112 -113 0
-112 -114 0
-113 -114 0
112 113 114 0
-115 -116 0
-115 -117 0
-116 -117 0
115 116 117 0
-118 -119 0
-118 -120 0
-119 -120 0
118 119 120 0
-121 -122 0
-121 -123 0
-122 -123 0
121 122 123 0
-124 -125 0
-124 -126 0
-125 -126 0
124 125 126 0
-127 -128 0
-127 -129 0
-128 -129 0
127 128 129 0
-130 -131 0
-130 -132 0
-131 -132 0
130 131 132 0
-133 -134 0
-133 -135 0
-134 -135 0
133 134 135 0
-136 -137 0
-136 -138 0
-137 -138 0
136 137 138 0
-139 -140 0
-139 -141 0
-140 -141 0
139 140 141 0
-142 -143 0
-142 -144 0
-143 -144 0
142 143 144 0
-145 -146 0
-145 -147 0
-146 -147 0
145 146 147 0
-148 -149 0
-148 -150 0
-149 -150 0
148 149 150 0
-55 -1 0
-56 -2 0
-57 -3 0
-82 -1 0
-83 -2 0
-84 -3 0
-88 -1 0
-89 -2 0
-90 -3 0
-100 -1 0
-101 -2 0
-102 -3 0
-106 -1 0
-107 -2 0
-108 -3 0
-109 -1 0
-110 -2 0
-111 -3 0
-142 -1 0
-143 -2 0
-144 -3 0
-55 -4 0
-56 -5 0
-57 -6 0
-64 -4 0
-65 -5 0
-66 -6 0
-85 -4 0
-86 -5 0
-87 -6 0
-88 -4 0
-89 -5 0
-90 -6 0
-130 -4 0
-131 -5 0
-132 -6 0
-55 -7 0
-56 -8 0
-57 -9 0
-85 -7 0
-86 -8 0
-87 -9 0
-91 -7 0
-92 -8 0
-93 -9 0
-100 -7 0
-101 -8 0
-102 -9 0
-130 -7 0
-131 -8 0
-132 -9 0
-61 -10 0
-62 -11 0
-63 -12 0
-118 -10 0
-119 -11 0
-120 -12 0
-121 -10 0
-122 -11 0
-123 -12 0
-97 -13 0
-98 -14 0
-99 -15 0
-115 -13 0
-116 -14 0
-117 -15 0
-124 -13 0
-125 -14 0
-126 -15 0
-130 -13 0
-131 -14 0
-132 -15 0
-58 -16 0
-59 -17 0
-60 -18 0
-85 -16 0
-86 -17 0
-87 -18 0
-106 -16 0
-107 -17 0
-108 -18 0
-133 -16 0
-134 -17 0
-135 -18 0
-136 -16 0
-137 -17 0
-138 -18 0
-139 -16 0
-140 -17 0
-141 -18 0
-67 -19 0
-68 -20 0
-69 -21 0
-73 -19 0
-74 -20 0
-75 -21 0
-82 -19 0
-83 -20 0
-84 -21 0
-91 -19 0
-92 -20 0
-93 -21 0
-103 -19 0
-104 -20 0
-105 -21 0
-112 -19 0
-113 -20 0
-114 -21 0
-55 -22 0
-56 -23 0
-57 -24 0
-118 -22 0
-119 -23 0
-120 -24 0
-136 -22 0
-137 -23 0
-138 -24 0
-79 -25 0
-80 -26 0
-81 -27 0
-100 -25 0
-101 -26 0
-102 -27 0
-115 -25 0
-116 -26 0
-117 -27 0
-145 -25 0
-146 -26 0
-147 -27 0
-61 -28 0
-62 -29 0
-63 -30 0
-70 -28 0
-71 -29 0
-72 -30 0
-85 -28 0
-86 -29 0
-87 -30 0
-91 -28 0
-92 -29 0
-93 -30 0
-124 -28 0
-125 -29 0
-126 -30 0
-148 -28 0
-149 -29 0
-150 -30 0
-79 -31 0
-80 -32 0
-81 -33 0
-118 -31 0
-119 -32 0
-120 -33 0
-127 -31 0
-128 -32 0
-129 -33 0
-148 -31 0
-149 -32 0
-150 -33 0
-67 -34 0
-68 -35 0
-69 -36 0
-94 -34 0
-95 -35 0
-96 -36 0
-124 -34 0
-125 -35 0
-126 -36 0
-133 -34 0
-134 -35 0
-135 -36 0
-139 -34 0
-140 -35 0
-141 -36 0
-61 -37 0
-62 -38 0
-63 -39 0
-88 -37 0
-89 -38 0
-90 -39 0
-112 -37 0
-113 -38 0
-114 -39 0
-142 -37 0
-143 -38 0
-144 -39 0
-58 -40 0
-59 -41 0
-60 -42 0
-118 -40 0
-119 -41 0
-120 -42 0
-136 -40 0
-137 -41 0
-138 -42 0
-139 -40 0
-140 -41 0
-141 -42 0
-61 -43 0
-62 -44 0
-63 -45 0
-67 -43 0
-68 -44 0
-69 -45 0
-79 -43 0
-80 -44 0
-81 -45 0
-106 -43 0
-107 -44 0
-108 -45 0
-115 -43 0
-116 -44 0
-117 -45 0
-148 -43 0
-149 -44 0
-150 -45 0
-58 -49 0
-59 -50 0
-60 -51 0
-70 -49 0
-71 -50 0
-72 -51 0
-88 -49 0
-89 -50 0
-90 -51 0
-94 -49 0
-95 -50 0
-96 -51 0
-115 -49 0
-116 -50 0
-117 -51 0
-118 -52 0
-119 -53 0
-120 -54 0
-130 -52 0
-131 -53 0
-132 -54 0
-145 -52 0
-146 -53 0
-147 -54 0
-124 -55 0
-125 -56 0
-126 -57 0
-136 -55 0
-137 -56 0
-138 -57 0
-145 -55 0
-146 -56 0
-147 -57 0
-103 -58 0
-104 -59 0
-105 -60 0
-109 -58 0
-110 -59 0
-111 -60 0
-148 -58 0
-149 -59 0
-150 -60 0
-121 -61 0
-122 -62 0
-123 -63 0
-130 -61 0
-131 -62 0
-132 -63 0
-133 -61 0
-134 -62 0
-135 -63 0
-136 -61 0
-137 -62 0
-138 -63 0
-103 -64 0
-104 -65 0
-105 -66 0
-112 -67 0
-113 -68 0
-114 -69 0
-109 -70 0
-110 -71 0
-111 -72 0
-127 -70 0
-128 -71 0
-129 -72 0
-103 -76 0
-104 -77 0
-105 -78 0
-109 -79 0
-110 -80 0
-111 -81 0
-142 -79 0
-143 -80 0
-144 -81 0
-148 -79 0
-149 -80 0
-150 -81 0
-130 -82 0
-131 -83 0
-132 -84 0
-148 -82 0
-149 -83 0
-150 -84 0
-121 -85 0
-122 -86 0
-123 -87 0
-124 -85 0
-125 -86 0
-126 -87 0
-139 -85 0
-140 -86 0
-141 -87 0
-127 -88 0
-128 -89 0
-129 -90 0
-136 -88 0
-137 -89 0
-138 -90 0
-142 -88 0
-143 -89 0
-144 -90 0
-106 -91 0
-107 -92 0
-108 -93 0
-139 -91 0
-140 -92 0
-141 -93 0
-145 -91 0
-146 -92 0
-147 -93 0
-133 -94 0
-134 -95 0
-135 -96 0
-109 -97 0
-110 -98 0
-111 -99 0
-112 -97 0
-113 -98 0
-114 -99 0
-118 -97 0
-119 -98 0
-120 -99 0
-118 -100 0
-119 -101 0
-120 -102 0
-133 -100 0
-134 -101 0
-135 -102 0
